(declare-fun var0 () String)
(assert (RegexIn var0 (RegexConcat (RegexUnion (RegexStar (Str2Reg "$$$")) (RegexStar (Str2Reg "%%%"))) (RegexConcat (RegexPlus (RegexUnion (Str2Reg "\"\"") (Str2Reg "#"))) (RegexConcat (RegexStar (RegexUnion (Str2Reg "ZZZ") (Str2Reg "!!"))) (RegexConcat (RegexUnion (RegexPlus (Str2Reg "XXX")) (RegexStar (Str2Reg "Y"))) (RegexConcat (RegexUnion (RegexUnion (Str2Reg "T") (Str2Reg "U")) (RegexUnion (Str2Reg "VV") (Str2Reg "W"))) (RegexConcat (RegexStar (RegexPlus (Str2Reg "SS"))) (RegexConcat (RegexStar (RegexPlus (Str2Reg "RR"))) (RegexConcat (RegexUnion (RegexPlus (Str2Reg "P")) (RegexStar (Str2Reg "Q"))) (RegexConcat (RegexPlus (RegexStar (Str2Reg "OO"))) (RegexConcat (RegexPlus (RegexUnion (Str2Reg "M") (Str2Reg "N"))) (RegexConcat (RegexStar (RegexUnion (Str2Reg "KKK") (Str2Reg "LL"))) (RegexConcat (RegexUnion (RegexStar (Str2Reg "HHH")) (RegexUnion (Str2Reg "III") (Str2Reg "J"))) (RegexConcat (RegexPlus (RegexUnion (Str2Reg "F") (Str2Reg "GG"))) (RegexConcat (RegexStar (RegexPlus (Str2Reg "EE"))) (RegexConcat (RegexPlus (RegexStar (Str2Reg "D"))) (RegexConcat (RegexPlus (RegexStar (Str2Reg "CC"))) (RegexConcat (RegexPlus (RegexPlus (Str2Reg "BB"))) (RegexConcat (RegexUnion (RegexStar (Str2Reg "zz")) (RegexPlus (Str2Reg "A"))) (RegexConcat (RegexStar (RegexUnion (Str2Reg "x") (Str2Reg "y"))) (RegexConcat (RegexPlus (RegexUnion (Str2Reg "vvv") (Str2Reg "www"))) (RegexConcat (RegexPlus (RegexUnion (Str2Reg "tt") (Str2Reg "u"))) (RegexConcat (RegexStar (RegexUnion (Str2Reg "r") (Str2Reg "ss"))) (RegexConcat (RegexUnion (RegexStar (Str2Reg "ppp")) (RegexPlus (Str2Reg "q"))) (RegexConcat (RegexPlus (RegexStar (Str2Reg "ooo"))) (RegexConcat (RegexPlus (RegexPlus (Str2Reg "nn"))) (RegexConcat (RegexUnion (RegexStar (Str2Reg "l")) (RegexStar (Str2Reg "m"))) (RegexConcat (RegexUnion (RegexUnion (Str2Reg "i") (Str2Reg "jjj")) (RegexPlus (Str2Reg "k"))) (RegexConcat (RegexStar (RegexPlus (Str2Reg "h"))) (RegexConcat (RegexStar (RegexUnion (Str2Reg "f") (Str2Reg "ggg"))) (RegexConcat (RegexPlus (RegexUnion (Str2Reg "ddd") (Str2Reg "eee"))) (RegexConcat (RegexStar (RegexStar (Str2Reg "cc"))) (RegexConcat (RegexStar (RegexPlus (Str2Reg "bb"))) (RegexConcat (RegexStar (RegexStar (Str2Reg "aa"))) (RegexConcat (RegexUnion (RegexUnion (Str2Reg "77") (Str2Reg "888")) (RegexPlus (Str2Reg "999"))) (RegexConcat (RegexStar (RegexPlus (Str2Reg "666"))) (RegexConcat (RegexPlus (RegexPlus (Str2Reg "55"))) (RegexConcat (RegexStar (RegexStar (Str2Reg "444"))) (RegexConcat (RegexPlus (RegexPlus (Str2Reg "3"))) (RegexConcat (RegexPlus (RegexStar (Str2Reg "222"))) (RegexConcat (RegexStar (RegexStar (Str2Reg "11"))) (RegexStar (RegexPlus (Str2Reg "000")))))))))))))))))))))))))))))))))))))))))))))
(check-sat)